n_res = 4;
rc = [ 11, 10, 8, 10 ];
n_tasks = 30;
d = [ 6, 6, 7, 6, 10, 7, 10, 4, 6, 8, 8, 8, 4, 2, 5, 2, 8, 1, 2, 7, 6, 9, 1, 5, 5, 2, 7, 2, 10, 9 ];
rr = [| 0, 0, 0, 4, 0, 0, 0, 0, 2, 1, 0, 1, 0, 10, 2, 0, 0, 0, 0, 0, 0, 4, 0, 10, 0, 0, 2, 0, 7, 0
      | 0, 0, 0, 0, 0, 6, 0, 7, 0, 0, 4, 0, 0, 0, 0, 1, 0, 0, 0, 8, 3, 0, 0, 0, 0, 0, 0, 0, 0, 0
      | 0, 0, 0, 0, 8, 0, 0, 0, 0, 0, 0, 0, 0, 0, 0, 0, 0, 6, 1, 0, 0, 0, 3, 0, 8, 2, 0, 3, 0, 0
      | 2, 8, 2, 0, 0, 0, 9, 0, 0, 0, 0, 0, 7, 0, 0, 0, 4, 0, 0, 0, 0, 0, 0, 0, 0, 0, 0, 0, 0, 8 |];
suc = [ { 2 }, 
        { 1 }, 
        { 4 }, 
        { 3 }, 
        { 6 }, 
        { 5 }, 
        { 8 }, 
        { 7 }, 
        { 10 }, 
        { 9 }, 
        { 12 }, 
        { 11 }, 
        { 14 }, 
        { 13 }, 
        { 16 }, 
        { 15 }, 
        { 18 }, 
        { 17 }, 
        { 20 }, 
        { 19 }, 
        { 22 }, 
        { 21 }, 
        { 24 }, 
        { 23 }, 
        { 26 }, 
        { 25 }, 
        { 28 }, 
        { 27 }, 
        { 30 }, 
        { 29 }]; 
